



(declare-const TMP_BV_8 (_ BitVec 8))
(declare-const TMP_BV_16 (_ BitVec 16))
(declare-const TMP_BV_32 (_ BitVec 32))
(declare-const TMP_BV_64 (_ BitVec 64))
(declare-const TMP_BV_128 (_ BitVec 128))
(declare-const TMP_BV_256 (_ BitVec 256))
(declare-const TMP_BOOL Bool)
(declare-const rbx (_ BitVec 64))
(declare-const rax (_ BitVec 64))
(declare-const rcx (_ BitVec 64))
(declare-const rdx (_ BitVec 64))
(declare-const rsp (_ BitVec 64))
(declare-const rip (_ BitVec 64))
(declare-const ymm1 (_ BitVec 256))
(declare-const ymm2 (_ BitVec 256))
(declare-const ymm3 (_ BitVec 256))
(declare-const ymm0 (_ BitVec 256))
(declare-const zf Bool)
(declare-const sf Bool)
(declare-const cf Bool)
(declare-const pf Bool)
(declare-const af Bool)
(declare-const of Bool)

; Uninterpreted binary function declaration
(declare-fun comisd ((_ BitVec 64) (_ BitVec 64)) (_ BitVec 2))
(declare-fun comiss ((_ BitVec 32) (_ BitVec 32)) (_ BitVec 2))
(declare-fun    cvt_single_to_fp16_rm   ((_ BitVec 32) (_ BitVec 8)) (_ BitVec 16) )
(declare-fun    cvt_single_to_int32_rm  ((_ BitVec 32) (_ BitVec 8)) (_ BitVec 32) )
(declare-fun    cvt_double_to_int64_rm  ((_ BitVec 64) (_ BitVec 8)) (_ BitVec 64) )

(declare-fun add_double ((_ BitVec 64) (_ BitVec 64)) (_ BitVec 64))
(declare-fun add_single ((_ BitVec 32) (_ BitVec 32)) (_ BitVec 32))
(declare-fun sub_double ((_ BitVec 64) (_ BitVec 64)) (_ BitVec 64))
(declare-fun sub_single ((_ BitVec 32) (_ BitVec 32)) (_ BitVec 32))
(declare-fun div_double ((_ BitVec 64) (_ BitVec 64)) (_ BitVec 64))
(declare-fun div_single ((_ BitVec 32) (_ BitVec 32)) (_ BitVec 32))
(declare-fun mul_double ((_ BitVec 64) (_ BitVec 64)) (_ BitVec 64))
(declare-fun mul_single ((_ BitVec 32) (_ BitVec 32)) (_ BitVec 32))
(declare-fun maxcmp_double ((_ BitVec 64) (_ BitVec 64)) (_ BitVec 1))
(declare-fun maxcmp_single ((_ BitVec 32) (_ BitVec 32)) (_ BitVec 1))
(declare-fun mincmp_double ((_ BitVec 64) (_ BitVec 64)) (_ BitVec 1))
(declare-fun mincmp_single ((_ BitVec 32) (_ BitVec 32)) (_ BitVec 1))

(declare-fun idiv_quotient_int8   ((_ BitVec 16) (_ BitVec 8)) (_ BitVec 8))
(declare-fun idiv_remainder_int8  ((_ BitVec 16) (_ BitVec 8)) (_ BitVec 8))
(declare-fun idiv_quotient_int16  ((_ BitVec 32) (_ BitVec 16)) (_ BitVec 16))
(declare-fun idiv_remainder_int16 ((_ BitVec 32) (_ BitVec 16)) (_ BitVec 16))
(declare-fun idiv_quotient_int32  ((_ BitVec 64) (_ BitVec 32)) (_ BitVec 32))
(declare-fun idiv_remainder_int32 ((_ BitVec 64) (_ BitVec 32)) (_ BitVec 32))
(declare-fun idiv_quotient_int64  ((_ BitVec 128) (_ BitVec 64)) (_ BitVec 64))
(declare-fun idiv_remainder_int64 ((_ BitVec 128) (_ BitVec 64)) (_ BitVec 64))
(declare-fun div_quotient_int8   ((_ BitVec 16) (_ BitVec 8)) (_ BitVec 8))
(declare-fun div_remainder_int8  ((_ BitVec 16) (_ BitVec 8)) (_ BitVec 8))
(declare-fun div_quotient_int16  ((_ BitVec 32) (_ BitVec 16)) (_ BitVec 16))
(declare-fun div_remainder_int16 ((_ BitVec 32) (_ BitVec 16)) (_ BitVec 16))
(declare-fun div_quotient_int32  ((_ BitVec 64) (_ BitVec 32)) (_ BitVec 32))
(declare-fun div_remainder_int32 ((_ BitVec 64) (_ BitVec 32)) (_ BitVec 32))
(declare-fun div_quotient_int64  ((_ BitVec 128) (_ BitVec 64)) (_ BitVec 64))
(declare-fun div_remainder_int64 ((_ BitVec 128) (_ BitVec 64)) (_ BitVec 64))

; Uninterpreted unary function declaration
(declare-fun    cvt_half_to_single      ((_ BitVec 16)) (_ BitVec 32) )
(declare-fun    cvt_double_to_int64_truncate     ((_ BitVec 64)) (_ BitVec 64) )
(declare-fun    cvt_single_to_int64_truncate     ((_ BitVec 32)) (_ BitVec 64) )

(declare-fun approx_reciprocal_double       ((_ BitVec 64)) (_ BitVec 64) )
(declare-fun approx_reciprocal_single       ((_ BitVec 32)) (_ BitVec 32) )
(declare-fun sqrt_double                    ((_ BitVec 64)) (_ BitVec 64) )
(declare-fun sqrt_single                    ((_ BitVec 32)) (_ BitVec 32) )
(declare-fun approx_reciprocal_sqrt_double  ((_ BitVec 64)) (_ BitVec 64) )
(declare-fun approx_reciprocal_sqrt_single  ((_ BitVec 32)) (_ BitVec 32) )

(declare-fun cvt_single_to_double           ((_ BitVec 32)) (_ BitVec 64) )
(declare-fun cvt_double_to_single           ((_ BitVec 64)) (_ BitVec 32) )

(declare-fun cvt_single_to_int32            ((_ BitVec 32)) (_ BitVec 32) )
(declare-fun cvt_single_to_int32_truncate   ((_ BitVec 32)) (_ BitVec 32) )
(declare-fun cvt_single_to_int64            ((_ BitVec 32)) (_ BitVec 64) )
(declare-fun cvt_double_to_int32            ((_ BitVec 64)) (_ BitVec 32) )
(declare-fun cvt_double_to_int32_truncate   ((_ BitVec 64)) (_ BitVec 32) )
(declare-fun cvt_double_to_int64            ((_ BitVec 64)) (_ BitVec 64) )

(declare-fun cvt_int32_to_single            ((_ BitVec 32)) (_ BitVec 32) )
(declare-fun cvt_int32_to_double            ((_ BitVec 32)) (_ BitVec 64) )
(declare-fun cvt_int64_to_single            ((_ BitVec 64)) (_ BitVec 32) )
(declare-fun cvt_int64_to_double            ((_ BitVec 64)) (_ BitVec 64) )

; Uninterpreted ternary function declaration
(declare-fun cmp_double_pred ((_ BitVec 64) (_ BitVec 64) (_ BitVec 8)) (_ BitVec 1))
(declare-fun cmp_single_pred ((_ BitVec 32) (_ BitVec 32) (_ BitVec 8)) (_ BitVec 1))

(declare-fun vfmadd132_double ((_ BitVec 64) (_ BitVec 64) (_ BitVec 64)) (_ BitVec 64))
(declare-fun vfmadd132_single ((_ BitVec 32) (_ BitVec 32) (_ BitVec 32)) (_ BitVec 32))
(declare-fun vfmadd231_double ((_ BitVec 64) (_ BitVec 64) (_ BitVec 64)) (_ BitVec 64))
(declare-fun vfmadd231_single ((_ BitVec 32) (_ BitVec 32) (_ BitVec 32)) (_ BitVec 32))
(declare-fun vfmadd213_double ((_ BitVec 64) (_ BitVec 64) (_ BitVec 64)) (_ BitVec 64))
(declare-fun vfmadd213_single ((_ BitVec 32) (_ BitVec 32) (_ BitVec 32)) (_ BitVec 32))
(declare-fun vfmsub132_double ((_ BitVec 64) (_ BitVec 64) (_ BitVec 64)) (_ BitVec 64))
(declare-fun vfmsub132_single ((_ BitVec 32) (_ BitVec 32) (_ BitVec 32)) (_ BitVec 32))
(declare-fun vfmsub231_double ((_ BitVec 64) (_ BitVec 64) (_ BitVec 64)) (_ BitVec 64))
(declare-fun vfmsub231_single ((_ BitVec 32) (_ BitVec 32) (_ BitVec 32)) (_ BitVec 32))
(declare-fun vfmsub213_double ((_ BitVec 64) (_ BitVec 64) (_ BitVec 64)) (_ BitVec 64))
(declare-fun vfmsub213_single ((_ BitVec 32) (_ BitVec 32) (_ BitVec 32)) (_ BitVec 32))
(declare-fun vfnmadd132_double ((_ BitVec 64) (_ BitVec 64) (_ BitVec 64)) (_ BitVec 64))
(declare-fun vfnmadd132_single ((_ BitVec 32) (_ BitVec 32) (_ BitVec 32)) (_ BitVec 32))
(declare-fun vfnmsub132_double ((_ BitVec 64) (_ BitVec 64) (_ BitVec 64)) (_ BitVec 64))
(declare-fun vfnmsub132_single ((_ BitVec 32) (_ BitVec 32) (_ BitVec 32)) (_ BitVec 32))


( push )
( echo "vpsubusb_ymm_ymm_m256::ymm1")
(assert (not (=
(let ((a!1 (bvsgt (bvsub (concat #b00 ((_ extract 255 248) ymm2))
(concat #b00 ((_ extract 255 248) TMP_BV_256)))
#b0011111111))
(a!2 (bvslt (bvsub (concat #b00 ((_ extract 255 248) ymm2))
(concat #b00 ((_ extract 255 248) TMP_BV_256)))
#b0000000000))
(a!3 ((_ extract 7 0)
(bvsub (concat #b00 ((_ extract 255 248) ymm2))
(concat #b00 ((_ extract 255 248) TMP_BV_256)))))
(a!4 (bvsgt (bvsub (concat #b00 ((_ extract 247 240) ymm2))
(concat #b00 ((_ extract 247 240) TMP_BV_256)))
#b0011111111))
(a!5 (bvslt (bvsub (concat #b00 ((_ extract 247 240) ymm2))
(concat #b00 ((_ extract 247 240) TMP_BV_256)))
#b0000000000))
(a!6 ((_ extract 7 0)
(bvsub (concat #b00 ((_ extract 247 240) ymm2))
(concat #b00 ((_ extract 247 240) TMP_BV_256)))))
(a!7 (bvsgt (bvsub (concat #b00 ((_ extract 239 232) ymm2))
(concat #b00 ((_ extract 239 232) TMP_BV_256)))
#b0011111111))
(a!8 (bvslt (bvsub (concat #b00 ((_ extract 239 232) ymm2))
(concat #b00 ((_ extract 239 232) TMP_BV_256)))
#b0000000000))
(a!9 ((_ extract 7 0)
(bvsub (concat #b00 ((_ extract 239 232) ymm2))
(concat #b00 ((_ extract 239 232) TMP_BV_256)))))
(a!10 (bvsgt (bvsub (concat #b00 ((_ extract 231 224) ymm2))
(concat #b00 ((_ extract 231 224) TMP_BV_256)))
#b0011111111))
(a!11 (bvslt (bvsub (concat #b00 ((_ extract 231 224) ymm2))
(concat #b00 ((_ extract 231 224) TMP_BV_256)))
#b0000000000))
(a!12 ((_ extract 7 0)
(bvsub (concat #b00 ((_ extract 231 224) ymm2))
(concat #b00 ((_ extract 231 224) TMP_BV_256)))))
(a!13 (bvsgt (bvsub (concat #b00 ((_ extract 223 216) ymm2))
(concat #b00 ((_ extract 223 216) TMP_BV_256)))
#b0011111111))
(a!14 (bvslt (bvsub (concat #b00 ((_ extract 223 216) ymm2))
(concat #b00 ((_ extract 223 216) TMP_BV_256)))
#b0000000000))
(a!15 ((_ extract 7 0)
(bvsub (concat #b00 ((_ extract 223 216) ymm2))
(concat #b00 ((_ extract 223 216) TMP_BV_256)))))
(a!16 (bvsgt (bvsub (concat #b00 ((_ extract 215 208) ymm2))
(concat #b00 ((_ extract 215 208) TMP_BV_256)))
#b0011111111))
(a!17 (bvslt (bvsub (concat #b00 ((_ extract 215 208) ymm2))
(concat #b00 ((_ extract 215 208) TMP_BV_256)))
#b0000000000))
(a!18 ((_ extract 7 0)
(bvsub (concat #b00 ((_ extract 215 208) ymm2))
(concat #b00 ((_ extract 215 208) TMP_BV_256)))))
(a!19 (bvsgt (bvsub (concat #b00 ((_ extract 207 200) ymm2))
(concat #b00 ((_ extract 207 200) TMP_BV_256)))
#b0011111111))
(a!20 (bvslt (bvsub (concat #b00 ((_ extract 207 200) ymm2))
(concat #b00 ((_ extract 207 200) TMP_BV_256)))
#b0000000000))
(a!21 ((_ extract 7 0)
(bvsub (concat #b00 ((_ extract 207 200) ymm2))
(concat #b00 ((_ extract 207 200) TMP_BV_256)))))
(a!22 (bvsgt (bvsub (concat #b00 ((_ extract 199 192) ymm2))
(concat #b00 ((_ extract 199 192) TMP_BV_256)))
#b0011111111))
(a!23 (bvslt (bvsub (concat #b00 ((_ extract 199 192) ymm2))
(concat #b00 ((_ extract 199 192) TMP_BV_256)))
#b0000000000))
(a!24 ((_ extract 7 0)
(bvsub (concat #b00 ((_ extract 199 192) ymm2))
(concat #b00 ((_ extract 199 192) TMP_BV_256)))))
(a!25 (bvsgt (bvsub (concat #b00 ((_ extract 191 184) ymm2))
(concat #b00 ((_ extract 191 184) TMP_BV_256)))
#b0011111111))
(a!26 (bvslt (bvsub (concat #b00 ((_ extract 191 184) ymm2))
(concat #b00 ((_ extract 191 184) TMP_BV_256)))
#b0000000000))
(a!27 ((_ extract 7 0)
(bvsub (concat #b00 ((_ extract 191 184) ymm2))
(concat #b00 ((_ extract 191 184) TMP_BV_256)))))
(a!28 (bvsgt (bvsub (concat #b00 ((_ extract 183 176) ymm2))
(concat #b00 ((_ extract 183 176) TMP_BV_256)))
#b0011111111))
(a!29 (bvslt (bvsub (concat #b00 ((_ extract 183 176) ymm2))
(concat #b00 ((_ extract 183 176) TMP_BV_256)))
#b0000000000))
(a!30 ((_ extract 7 0)
(bvsub (concat #b00 ((_ extract 183 176) ymm2))
(concat #b00 ((_ extract 183 176) TMP_BV_256)))))
(a!31 (bvsgt (bvsub (concat #b00 ((_ extract 175 168) ymm2))
(concat #b00 ((_ extract 175 168) TMP_BV_256)))
#b0011111111))
(a!32 (bvslt (bvsub (concat #b00 ((_ extract 175 168) ymm2))
(concat #b00 ((_ extract 175 168) TMP_BV_256)))
#b0000000000))
(a!33 ((_ extract 7 0)
(bvsub (concat #b00 ((_ extract 175 168) ymm2))
(concat #b00 ((_ extract 175 168) TMP_BV_256)))))
(a!34 (bvsgt (bvsub (concat #b00 ((_ extract 167 160) ymm2))
(concat #b00 ((_ extract 167 160) TMP_BV_256)))
#b0011111111))
(a!35 (bvslt (bvsub (concat #b00 ((_ extract 167 160) ymm2))
(concat #b00 ((_ extract 167 160) TMP_BV_256)))
#b0000000000))
(a!36 ((_ extract 7 0)
(bvsub (concat #b00 ((_ extract 167 160) ymm2))
(concat #b00 ((_ extract 167 160) TMP_BV_256)))))
(a!37 (bvsgt (bvsub (concat #b00 ((_ extract 159 152) ymm2))
(concat #b00 ((_ extract 159 152) TMP_BV_256)))
#b0011111111))
(a!38 (bvslt (bvsub (concat #b00 ((_ extract 159 152) ymm2))
(concat #b00 ((_ extract 159 152) TMP_BV_256)))
#b0000000000))
(a!39 ((_ extract 7 0)
(bvsub (concat #b00 ((_ extract 159 152) ymm2))
(concat #b00 ((_ extract 159 152) TMP_BV_256)))))
(a!40 (bvsgt (bvsub (concat #b00 ((_ extract 151 144) ymm2))
(concat #b00 ((_ extract 151 144) TMP_BV_256)))
#b0011111111))
(a!41 (bvslt (bvsub (concat #b00 ((_ extract 151 144) ymm2))
(concat #b00 ((_ extract 151 144) TMP_BV_256)))
#b0000000000))
(a!42 ((_ extract 7 0)
(bvsub (concat #b00 ((_ extract 151 144) ymm2))
(concat #b00 ((_ extract 151 144) TMP_BV_256)))))
(a!43 (bvsgt (bvsub (concat #b00 ((_ extract 143 136) ymm2))
(concat #b00 ((_ extract 143 136) TMP_BV_256)))
#b0011111111))
(a!44 (bvslt (bvsub (concat #b00 ((_ extract 143 136) ymm2))
(concat #b00 ((_ extract 143 136) TMP_BV_256)))
#b0000000000))
(a!45 ((_ extract 7 0)
(bvsub (concat #b00 ((_ extract 143 136) ymm2))
(concat #b00 ((_ extract 143 136) TMP_BV_256)))))
(a!46 (bvsgt (bvsub (concat #b00 ((_ extract 135 128) ymm2))
(concat #b00 ((_ extract 135 128) TMP_BV_256)))
#b0011111111))
(a!47 (bvslt (bvsub (concat #b00 ((_ extract 135 128) ymm2))
(concat #b00 ((_ extract 135 128) TMP_BV_256)))
#b0000000000))
(a!48 ((_ extract 7 0)
(bvsub (concat #b00 ((_ extract 135 128) ymm2))
(concat #b00 ((_ extract 135 128) TMP_BV_256)))))
(a!49 (bvsgt (bvsub (concat #b00 ((_ extract 127 120) ymm2))
(concat #b00 ((_ extract 127 120) TMP_BV_256)))
#b0011111111))
(a!50 (bvslt (bvsub (concat #b00 ((_ extract 127 120) ymm2))
(concat #b00 ((_ extract 127 120) TMP_BV_256)))
#b0000000000))
(a!51 ((_ extract 7 0)
(bvsub (concat #b00 ((_ extract 127 120) ymm2))
(concat #b00 ((_ extract 127 120) TMP_BV_256)))))
(a!52 (bvsgt (bvsub (concat #b00 ((_ extract 119 112) ymm2))
(concat #b00 ((_ extract 119 112) TMP_BV_256)))
#b0011111111))
(a!53 (bvslt (bvsub (concat #b00 ((_ extract 119 112) ymm2))
(concat #b00 ((_ extract 119 112) TMP_BV_256)))
#b0000000000))
(a!54 ((_ extract 7 0)
(bvsub (concat #b00 ((_ extract 119 112) ymm2))
(concat #b00 ((_ extract 119 112) TMP_BV_256)))))
(a!55 (bvsgt (bvsub (concat #b00 ((_ extract 111 104) ymm2))
(concat #b00 ((_ extract 111 104) TMP_BV_256)))
#b0011111111))
(a!56 (bvslt (bvsub (concat #b00 ((_ extract 111 104) ymm2))
(concat #b00 ((_ extract 111 104) TMP_BV_256)))
#b0000000000))
(a!57 ((_ extract 7 0)
(bvsub (concat #b00 ((_ extract 111 104) ymm2))
(concat #b00 ((_ extract 111 104) TMP_BV_256)))))
(a!58 (bvsgt (bvsub (concat #b00 ((_ extract 103 96) ymm2))
(concat #b00 ((_ extract 103 96) TMP_BV_256)))
#b0011111111))
(a!59 (bvslt (bvsub (concat #b00 ((_ extract 103 96) ymm2))
(concat #b00 ((_ extract 103 96) TMP_BV_256)))
#b0000000000))
(a!60 ((_ extract 7 0)
(bvsub (concat #b00 ((_ extract 103 96) ymm2))
(concat #b00 ((_ extract 103 96) TMP_BV_256)))))
(a!61 (bvsgt (bvsub (concat #b00 ((_ extract 95 88) ymm2))
(concat #b00 ((_ extract 95 88) TMP_BV_256)))
#b0011111111))
(a!62 (bvslt (bvsub (concat #b00 ((_ extract 95 88) ymm2))
(concat #b00 ((_ extract 95 88) TMP_BV_256)))
#b0000000000))
(a!63 ((_ extract 7 0)
(bvsub (concat #b00 ((_ extract 95 88) ymm2))
(concat #b00 ((_ extract 95 88) TMP_BV_256)))))
(a!64 (bvsgt (bvsub (concat #b00 ((_ extract 87 80) ymm2))
(concat #b00 ((_ extract 87 80) TMP_BV_256)))
#b0011111111))
(a!65 (bvslt (bvsub (concat #b00 ((_ extract 87 80) ymm2))
(concat #b00 ((_ extract 87 80) TMP_BV_256)))
#b0000000000))
(a!66 ((_ extract 7 0)
(bvsub (concat #b00 ((_ extract 87 80) ymm2))
(concat #b00 ((_ extract 87 80) TMP_BV_256)))))
(a!67 (bvsgt (bvsub (concat #b00 ((_ extract 79 72) ymm2))
(concat #b00 ((_ extract 79 72) TMP_BV_256)))
#b0011111111))
(a!68 (bvslt (bvsub (concat #b00 ((_ extract 79 72) ymm2))
(concat #b00 ((_ extract 79 72) TMP_BV_256)))
#b0000000000))
(a!69 ((_ extract 7 0)
(bvsub (concat #b00 ((_ extract 79 72) ymm2))
(concat #b00 ((_ extract 79 72) TMP_BV_256)))))
(a!70 (bvsgt (bvsub (concat #b00 ((_ extract 71 64) ymm2))
(concat #b00 ((_ extract 71 64) TMP_BV_256)))
#b0011111111))
(a!71 (bvslt (bvsub (concat #b00 ((_ extract 71 64) ymm2))
(concat #b00 ((_ extract 71 64) TMP_BV_256)))
#b0000000000))
(a!72 ((_ extract 7 0)
(bvsub (concat #b00 ((_ extract 71 64) ymm2))
(concat #b00 ((_ extract 71 64) TMP_BV_256)))))
(a!73 (bvsgt (bvsub (concat #b00 ((_ extract 63 56) ymm2))
(concat #b00 ((_ extract 63 56) TMP_BV_256)))
#b0011111111))
(a!74 (bvslt (bvsub (concat #b00 ((_ extract 63 56) ymm2))
(concat #b00 ((_ extract 63 56) TMP_BV_256)))
#b0000000000))
(a!75 ((_ extract 7 0)
(bvsub (concat #b00 ((_ extract 63 56) ymm2))
(concat #b00 ((_ extract 63 56) TMP_BV_256)))))
(a!76 (bvsgt (bvsub (concat #b00 ((_ extract 55 48) ymm2))
(concat #b00 ((_ extract 55 48) TMP_BV_256)))
#b0011111111))
(a!77 (bvslt (bvsub (concat #b00 ((_ extract 55 48) ymm2))
(concat #b00 ((_ extract 55 48) TMP_BV_256)))
#b0000000000))
(a!78 ((_ extract 7 0)
(bvsub (concat #b00 ((_ extract 55 48) ymm2))
(concat #b00 ((_ extract 55 48) TMP_BV_256)))))
(a!79 (bvsgt (bvsub (concat #b00 ((_ extract 47 40) ymm2))
(concat #b00 ((_ extract 47 40) TMP_BV_256)))
#b0011111111))
(a!80 (bvslt (bvsub (concat #b00 ((_ extract 47 40) ymm2))
(concat #b00 ((_ extract 47 40) TMP_BV_256)))
#b0000000000))
(a!81 ((_ extract 7 0)
(bvsub (concat #b00 ((_ extract 47 40) ymm2))
(concat #b00 ((_ extract 47 40) TMP_BV_256)))))
(a!82 (bvsgt (bvsub (concat #b00 ((_ extract 39 32) ymm2))
(concat #b00 ((_ extract 39 32) TMP_BV_256)))
#b0011111111))
(a!83 (bvslt (bvsub (concat #b00 ((_ extract 39 32) ymm2))
(concat #b00 ((_ extract 39 32) TMP_BV_256)))
#b0000000000))
(a!84 ((_ extract 7 0)
(bvsub (concat #b00 ((_ extract 39 32) ymm2))
(concat #b00 ((_ extract 39 32) TMP_BV_256)))))
(a!85 (bvsgt (bvsub (concat #b00 ((_ extract 31 24) ymm2))
(concat #b00 ((_ extract 31 24) TMP_BV_256)))
#b0011111111))
(a!86 (bvslt (bvsub (concat #b00 ((_ extract 31 24) ymm2))
(concat #b00 ((_ extract 31 24) TMP_BV_256)))
#b0000000000))
(a!87 ((_ extract 7 0)
(bvsub (concat #b00 ((_ extract 31 24) ymm2))
(concat #b00 ((_ extract 31 24) TMP_BV_256)))))
(a!88 (bvsgt (bvsub (concat #b00 ((_ extract 23 16) ymm2))
(concat #b00 ((_ extract 23 16) TMP_BV_256)))
#b0011111111))
(a!89 (bvslt (bvsub (concat #b00 ((_ extract 23 16) ymm2))
(concat #b00 ((_ extract 23 16) TMP_BV_256)))
#b0000000000))
(a!90 ((_ extract 7 0)
(bvsub (concat #b00 ((_ extract 23 16) ymm2))
(concat #b00 ((_ extract 23 16) TMP_BV_256)))))
(a!91 (bvsgt (bvsub (concat #b00 ((_ extract 15 8) ymm2))
(concat #b00 ((_ extract 15 8) TMP_BV_256)))
#b0011111111))
(a!92 (bvslt (bvsub (concat #b00 ((_ extract 15 8) ymm2))
(concat #b00 ((_ extract 15 8) TMP_BV_256)))
#b0000000000))
(a!93 ((_ extract 7 0)
(bvsub (concat #b00 ((_ extract 15 8) ymm2))
(concat #b00 ((_ extract 15 8) TMP_BV_256)))))
(a!94 (bvsgt (bvsub (concat #b00 ((_ extract 7 0) ymm2))
(concat #b00 ((_ extract 7 0) TMP_BV_256)))
#b0011111111))
(a!95 (bvslt (bvsub (concat #b00 ((_ extract 7 0) ymm2))
(concat #b00 ((_ extract 7 0) TMP_BV_256)))
#b0000000000))
(a!96 ((_ extract 7 0)
(bvsub (concat #b00 ((_ extract 7 0) ymm2))
(concat #b00 ((_ extract 7 0) TMP_BV_256))))))
(let ((a!97 (concat (ite a!88 #xff (ite a!89 #x00 a!90))
(concat (ite a!91 #xff (ite a!92 #x00 a!93))
(ite a!94 #xff (ite a!95 #x00 a!96))))))
(let ((a!98 (concat (ite a!82 #xff (ite a!83 #x00 a!84))
(concat (ite a!85 #xff (ite a!86 #x00 a!87)) a!97))))
(let ((a!99 (concat (ite a!76 #xff (ite a!77 #x00 a!78))
(concat (ite a!79 #xff (ite a!80 #x00 a!81)) a!98))))
(let ((a!100 (concat (ite a!70 #xff (ite a!71 #x00 a!72))
(concat (ite a!73 #xff (ite a!74 #x00 a!75)) a!99))))
(let ((a!101 (concat (ite a!64 #xff (ite a!65 #x00 a!66))
(concat (ite a!67 #xff (ite a!68 #x00 a!69)) a!100))))
(let ((a!102 (concat (ite a!58 #xff (ite a!59 #x00 a!60))
(concat (ite a!61 #xff (ite a!62 #x00 a!63)) a!101))))
(let ((a!103 (concat (ite a!52 #xff (ite a!53 #x00 a!54))
(concat (ite a!55 #xff (ite a!56 #x00 a!57)) a!102))))
(let ((a!104 (concat (ite a!46 #xff (ite a!47 #x00 a!48))
(concat (ite a!49 #xff (ite a!50 #x00 a!51)) a!103))))
(let ((a!105 (concat (ite a!40 #xff (ite a!41 #x00 a!42))
(concat (ite a!43 #xff (ite a!44 #x00 a!45)) a!104))))
(let ((a!106 (concat (ite a!34 #xff (ite a!35 #x00 a!36))
(concat (ite a!37 #xff (ite a!38 #x00 a!39)) a!105))))
(let ((a!107 (concat (ite a!28 #xff (ite a!29 #x00 a!30))
(concat (ite a!31 #xff (ite a!32 #x00 a!33)) a!106))))
(let ((a!108 (concat (ite a!22 #xff (ite a!23 #x00 a!24))
(concat (ite a!25 #xff (ite a!26 #x00 a!27)) a!107))))
(let ((a!109 (concat (ite a!16 #xff (ite a!17 #x00 a!18))
(concat (ite a!19 #xff (ite a!20 #x00 a!21)) a!108))))
(let ((a!110 (concat (ite a!10 #xff (ite a!11 #x00 a!12))
(concat (ite a!13 #xff (ite a!14 #x00 a!15)) a!109))))
(let ((a!111 (concat (ite a!4 #xff (ite a!5 #x00 a!6))
(concat (ite a!7 #xff (ite a!8 #x00 a!9)) a!110))))
(concat (ite a!1 #xff (ite a!2 #x00 a!3)) a!111)))))))))))))))))

(let ((a!1 (bvsgt (bvsub (concat #b00 ((_ extract 255 248) ymm2))
(concat #b00 ((_ extract 255 248) TMP_BV_256)))
#b0011111111))
(a!2 (bvslt (bvsub (concat #b00 ((_ extract 255 248) ymm2))
(concat #b00 ((_ extract 255 248) TMP_BV_256)))
#b0000000000))
(a!3 ((_ extract 7 0)
(bvsub (concat #b00 ((_ extract 255 248) ymm2))
(concat #b00 ((_ extract 255 248) TMP_BV_256)))))
(a!4 (bvsgt (bvsub (concat #b00 ((_ extract 247 240) ymm2))
(concat #b00 ((_ extract 247 240) TMP_BV_256)))
#b0011111111))
(a!5 (bvslt (bvsub (concat #b00 ((_ extract 247 240) ymm2))
(concat #b00 ((_ extract 247 240) TMP_BV_256)))
#b0000000000))
(a!6 ((_ extract 7 0)
(bvsub (concat #b00 ((_ extract 247 240) ymm2))
(concat #b00 ((_ extract 247 240) TMP_BV_256)))))
(a!7 (bvsgt (bvsub (concat #b00 ((_ extract 239 232) ymm2))
(concat #b00 ((_ extract 239 232) TMP_BV_256)))
#b0011111111))
(a!8 (bvslt (bvsub (concat #b00 ((_ extract 239 232) ymm2))
(concat #b00 ((_ extract 239 232) TMP_BV_256)))
#b0000000000))
(a!9 ((_ extract 7 0)
(bvsub (concat #b00 ((_ extract 239 232) ymm2))
(concat #b00 ((_ extract 239 232) TMP_BV_256)))))
(a!10 (bvsgt (bvsub (concat #b00 ((_ extract 231 224) ymm2))
(concat #b00 ((_ extract 231 224) TMP_BV_256)))
#b0011111111))
(a!11 (bvslt (bvsub (concat #b00 ((_ extract 231 224) ymm2))
(concat #b00 ((_ extract 231 224) TMP_BV_256)))
#b0000000000))
(a!12 ((_ extract 7 0)
(bvsub (concat #b00 ((_ extract 231 224) ymm2))
(concat #b00 ((_ extract 231 224) TMP_BV_256)))))
(a!13 (bvsgt (bvsub (concat #b00 ((_ extract 223 216) ymm2))
(concat #b00 ((_ extract 223 216) TMP_BV_256)))
#b0011111111))
(a!14 (bvslt (bvsub (concat #b00 ((_ extract 223 216) ymm2))
(concat #b00 ((_ extract 223 216) TMP_BV_256)))
#b0000000000))
(a!15 ((_ extract 7 0)
(bvsub (concat #b00 ((_ extract 223 216) ymm2))
(concat #b00 ((_ extract 223 216) TMP_BV_256)))))
(a!16 (bvsgt (bvsub (concat #b00 ((_ extract 215 208) ymm2))
(concat #b00 ((_ extract 215 208) TMP_BV_256)))
#b0011111111))
(a!17 (bvslt (bvsub (concat #b00 ((_ extract 215 208) ymm2))
(concat #b00 ((_ extract 215 208) TMP_BV_256)))
#b0000000000))
(a!18 ((_ extract 7 0)
(bvsub (concat #b00 ((_ extract 215 208) ymm2))
(concat #b00 ((_ extract 215 208) TMP_BV_256)))))
(a!19 (bvsgt (bvsub (concat #b00 ((_ extract 207 200) ymm2))
(concat #b00 ((_ extract 207 200) TMP_BV_256)))
#b0011111111))
(a!20 (bvslt (bvsub (concat #b00 ((_ extract 207 200) ymm2))
(concat #b00 ((_ extract 207 200) TMP_BV_256)))
#b0000000000))
(a!21 ((_ extract 7 0)
(bvsub (concat #b00 ((_ extract 207 200) ymm2))
(concat #b00 ((_ extract 207 200) TMP_BV_256)))))
(a!22 (bvsgt (bvsub (concat #b00 ((_ extract 199 192) ymm2))
(concat #b00 ((_ extract 199 192) TMP_BV_256)))
#b0011111111))
(a!23 (bvslt (bvsub (concat #b00 ((_ extract 199 192) ymm2))
(concat #b00 ((_ extract 199 192) TMP_BV_256)))
#b0000000000))
(a!24 ((_ extract 7 0)
(bvsub (concat #b00 ((_ extract 199 192) ymm2))
(concat #b00 ((_ extract 199 192) TMP_BV_256)))))
(a!25 (bvsgt (bvsub (concat #b00 ((_ extract 191 184) ymm2))
(concat #b00 ((_ extract 191 184) TMP_BV_256)))
#b0011111111))
(a!26 (bvslt (bvsub (concat #b00 ((_ extract 191 184) ymm2))
(concat #b00 ((_ extract 191 184) TMP_BV_256)))
#b0000000000))
(a!27 ((_ extract 7 0)
(bvsub (concat #b00 ((_ extract 191 184) ymm2))
(concat #b00 ((_ extract 191 184) TMP_BV_256)))))
(a!28 (bvsgt (bvsub (concat #b00 ((_ extract 183 176) ymm2))
(concat #b00 ((_ extract 183 176) TMP_BV_256)))
#b0011111111))
(a!29 (bvslt (bvsub (concat #b00 ((_ extract 183 176) ymm2))
(concat #b00 ((_ extract 183 176) TMP_BV_256)))
#b0000000000))
(a!30 ((_ extract 7 0)
(bvsub (concat #b00 ((_ extract 183 176) ymm2))
(concat #b00 ((_ extract 183 176) TMP_BV_256)))))
(a!31 (bvsgt (bvsub (concat #b00 ((_ extract 175 168) ymm2))
(concat #b00 ((_ extract 175 168) TMP_BV_256)))
#b0011111111))
(a!32 (bvslt (bvsub (concat #b00 ((_ extract 175 168) ymm2))
(concat #b00 ((_ extract 175 168) TMP_BV_256)))
#b0000000000))
(a!33 ((_ extract 7 0)
(bvsub (concat #b00 ((_ extract 175 168) ymm2))
(concat #b00 ((_ extract 175 168) TMP_BV_256)))))
(a!34 (bvsgt (bvsub (concat #b00 ((_ extract 167 160) ymm2))
(concat #b00 ((_ extract 167 160) TMP_BV_256)))
#b0011111111))
(a!35 (bvslt (bvsub (concat #b00 ((_ extract 167 160) ymm2))
(concat #b00 ((_ extract 167 160) TMP_BV_256)))
#b0000000000))
(a!36 ((_ extract 7 0)
(bvsub (concat #b00 ((_ extract 167 160) ymm2))
(concat #b00 ((_ extract 167 160) TMP_BV_256)))))
(a!37 (bvsgt (bvsub (concat #b00 ((_ extract 159 152) ymm2))
(concat #b00 ((_ extract 159 152) TMP_BV_256)))
#b0011111111))
(a!38 (bvslt (bvsub (concat #b00 ((_ extract 159 152) ymm2))
(concat #b00 ((_ extract 159 152) TMP_BV_256)))
#b0000000000))
(a!39 ((_ extract 7 0)
(bvsub (concat #b00 ((_ extract 159 152) ymm2))
(concat #b00 ((_ extract 159 152) TMP_BV_256)))))
(a!40 (bvsgt (bvsub (concat #b00 ((_ extract 151 144) ymm2))
(concat #b00 ((_ extract 151 144) TMP_BV_256)))
#b0011111111))
(a!41 (bvslt (bvsub (concat #b00 ((_ extract 151 144) ymm2))
(concat #b00 ((_ extract 151 144) TMP_BV_256)))
#b0000000000))
(a!42 ((_ extract 7 0)
(bvsub (concat #b00 ((_ extract 151 144) ymm2))
(concat #b00 ((_ extract 151 144) TMP_BV_256)))))
(a!43 (bvsgt (bvsub (concat #b00 ((_ extract 143 136) ymm2))
(concat #b00 ((_ extract 143 136) TMP_BV_256)))
#b0011111111))
(a!44 (bvslt (bvsub (concat #b00 ((_ extract 143 136) ymm2))
(concat #b00 ((_ extract 143 136) TMP_BV_256)))
#b0000000000))
(a!45 ((_ extract 7 0)
(bvsub (concat #b00 ((_ extract 143 136) ymm2))
(concat #b00 ((_ extract 143 136) TMP_BV_256)))))
(a!46 (bvsgt (bvsub (concat #b00 ((_ extract 135 128) ymm2))
(concat #b00 ((_ extract 135 128) TMP_BV_256)))
#b0011111111))
(a!47 (bvslt (bvsub (concat #b00 ((_ extract 135 128) ymm2))
(concat #b00 ((_ extract 135 128) TMP_BV_256)))
#b0000000000))
(a!48 ((_ extract 7 0)
(bvsub (concat #b00 ((_ extract 135 128) ymm2))
(concat #b00 ((_ extract 135 128) TMP_BV_256)))))
(a!49 (bvsgt (bvsub (concat #b00 ((_ extract 127 120) ymm2))
(concat #b00 ((_ extract 127 120) TMP_BV_256)))
#b0011111111))
(a!50 (bvslt (bvsub (concat #b00 ((_ extract 127 120) ymm2))
(concat #b00 ((_ extract 127 120) TMP_BV_256)))
#b0000000000))
(a!51 ((_ extract 7 0)
(bvsub (concat #b00 ((_ extract 127 120) ymm2))
(concat #b00 ((_ extract 127 120) TMP_BV_256)))))
(a!52 (bvsgt (bvsub (concat #b00 ((_ extract 119 112) ymm2))
(concat #b00 ((_ extract 119 112) TMP_BV_256)))
#b0011111111))
(a!53 (bvslt (bvsub (concat #b00 ((_ extract 119 112) ymm2))
(concat #b00 ((_ extract 119 112) TMP_BV_256)))
#b0000000000))
(a!54 ((_ extract 7 0)
(bvsub (concat #b00 ((_ extract 119 112) ymm2))
(concat #b00 ((_ extract 119 112) TMP_BV_256)))))
(a!55 (bvsgt (bvsub (concat #b00 ((_ extract 111 104) ymm2))
(concat #b00 ((_ extract 111 104) TMP_BV_256)))
#b0011111111))
(a!56 (bvslt (bvsub (concat #b00 ((_ extract 111 104) ymm2))
(concat #b00 ((_ extract 111 104) TMP_BV_256)))
#b0000000000))
(a!57 ((_ extract 7 0)
(bvsub (concat #b00 ((_ extract 111 104) ymm2))
(concat #b00 ((_ extract 111 104) TMP_BV_256)))))
(a!58 (bvsgt (bvsub (concat #b00 ((_ extract 103 96) ymm2))
(concat #b00 ((_ extract 103 96) TMP_BV_256)))
#b0011111111))
(a!59 (bvslt (bvsub (concat #b00 ((_ extract 103 96) ymm2))
(concat #b00 ((_ extract 103 96) TMP_BV_256)))
#b0000000000))
(a!60 ((_ extract 7 0)
(bvsub (concat #b00 ((_ extract 103 96) ymm2))
(concat #b00 ((_ extract 103 96) TMP_BV_256)))))
(a!61 (bvsgt (bvsub (concat #b00 ((_ extract 95 88) ymm2))
(concat #b00 ((_ extract 95 88) TMP_BV_256)))
#b0011111111))
(a!62 (bvslt (bvsub (concat #b00 ((_ extract 95 88) ymm2))
(concat #b00 ((_ extract 95 88) TMP_BV_256)))
#b0000000000))
(a!63 ((_ extract 7 0)
(bvsub (concat #b00 ((_ extract 95 88) ymm2))
(concat #b00 ((_ extract 95 88) TMP_BV_256)))))
(a!64 (bvsgt (bvsub (concat #b00 ((_ extract 87 80) ymm2))
(concat #b00 ((_ extract 87 80) TMP_BV_256)))
#b0011111111))
(a!65 (bvslt (bvsub (concat #b00 ((_ extract 87 80) ymm2))
(concat #b00 ((_ extract 87 80) TMP_BV_256)))
#b0000000000))
(a!66 ((_ extract 7 0)
(bvsub (concat #b00 ((_ extract 87 80) ymm2))
(concat #b00 ((_ extract 87 80) TMP_BV_256)))))
(a!67 (bvsgt (bvsub (concat #b00 ((_ extract 79 72) ymm2))
(concat #b00 ((_ extract 79 72) TMP_BV_256)))
#b0011111111))
(a!68 (bvslt (bvsub (concat #b00 ((_ extract 79 72) ymm2))
(concat #b00 ((_ extract 79 72) TMP_BV_256)))
#b0000000000))
(a!69 ((_ extract 7 0)
(bvsub (concat #b00 ((_ extract 79 72) ymm2))
(concat #b00 ((_ extract 79 72) TMP_BV_256)))))
(a!70 (bvsgt (bvsub (concat #b00 ((_ extract 71 64) ymm2))
(concat #b00 ((_ extract 71 64) TMP_BV_256)))
#b0011111111))
(a!71 (bvslt (bvsub (concat #b00 ((_ extract 71 64) ymm2))
(concat #b00 ((_ extract 71 64) TMP_BV_256)))
#b0000000000))
(a!72 ((_ extract 7 0)
(bvsub (concat #b00 ((_ extract 71 64) ymm2))
(concat #b00 ((_ extract 71 64) TMP_BV_256)))))
(a!73 (bvsgt (bvsub (concat #b00 ((_ extract 63 56) ymm2))
(concat #b00 ((_ extract 63 56) TMP_BV_256)))
#b0011111111))
(a!74 (bvslt (bvsub (concat #b00 ((_ extract 63 56) ymm2))
(concat #b00 ((_ extract 63 56) TMP_BV_256)))
#b0000000000))
(a!75 ((_ extract 7 0)
(bvsub (concat #b00 ((_ extract 63 56) ymm2))
(concat #b00 ((_ extract 63 56) TMP_BV_256)))))
(a!76 (bvsgt (bvsub (concat #b00 ((_ extract 55 48) ymm2))
(concat #b00 ((_ extract 55 48) TMP_BV_256)))
#b0011111111))
(a!77 (bvslt (bvsub (concat #b00 ((_ extract 55 48) ymm2))
(concat #b00 ((_ extract 55 48) TMP_BV_256)))
#b0000000000))
(a!78 ((_ extract 7 0)
(bvsub (concat #b00 ((_ extract 55 48) ymm2))
(concat #b00 ((_ extract 55 48) TMP_BV_256)))))
(a!79 (bvsgt (bvsub (concat #b00 ((_ extract 47 40) ymm2))
(concat #b00 ((_ extract 47 40) TMP_BV_256)))
#b0011111111))
(a!80 (bvslt (bvsub (concat #b00 ((_ extract 47 40) ymm2))
(concat #b00 ((_ extract 47 40) TMP_BV_256)))
#b0000000000))
(a!81 ((_ extract 7 0)
(bvsub (concat #b00 ((_ extract 47 40) ymm2))
(concat #b00 ((_ extract 47 40) TMP_BV_256)))))
(a!82 (bvsgt (bvsub (concat #b00 ((_ extract 39 32) ymm2))
(concat #b00 ((_ extract 39 32) TMP_BV_256)))
#b0011111111))
(a!83 (bvslt (bvsub (concat #b00 ((_ extract 39 32) ymm2))
(concat #b00 ((_ extract 39 32) TMP_BV_256)))
#b0000000000))
(a!84 ((_ extract 7 0)
(bvsub (concat #b00 ((_ extract 39 32) ymm2))
(concat #b00 ((_ extract 39 32) TMP_BV_256)))))
(a!85 (bvsgt (bvsub (concat #b00 ((_ extract 31 24) ymm2))
(concat #b00 ((_ extract 31 24) TMP_BV_256)))
#b0011111111))
(a!86 (bvslt (bvsub (concat #b00 ((_ extract 31 24) ymm2))
(concat #b00 ((_ extract 31 24) TMP_BV_256)))
#b0000000000))
(a!87 ((_ extract 7 0)
(bvsub (concat #b00 ((_ extract 31 24) ymm2))
(concat #b00 ((_ extract 31 24) TMP_BV_256)))))
(a!88 (bvsgt (bvsub (concat #b00 ((_ extract 23 16) ymm2))
(concat #b00 ((_ extract 23 16) TMP_BV_256)))
#b0011111111))
(a!89 (bvslt (bvsub (concat #b00 ((_ extract 23 16) ymm2))
(concat #b00 ((_ extract 23 16) TMP_BV_256)))
#b0000000000))
(a!90 ((_ extract 7 0)
(bvsub (concat #b00 ((_ extract 23 16) ymm2))
(concat #b00 ((_ extract 23 16) TMP_BV_256)))))
(a!91 (bvsgt (bvsub (concat #b00 ((_ extract 15 8) ymm2))
(concat #b00 ((_ extract 15 8) TMP_BV_256)))
#b0011111111))
(a!92 (bvslt (bvsub (concat #b00 ((_ extract 15 8) ymm2))
(concat #b00 ((_ extract 15 8) TMP_BV_256)))
#b0000000000))
(a!93 ((_ extract 7 0)
(bvsub (concat #b00 ((_ extract 15 8) ymm2))
(concat #b00 ((_ extract 15 8) TMP_BV_256)))))
(a!94 (bvsgt (bvsub (concat #b00 ((_ extract 7 0) ymm2))
(concat #b00 ((_ extract 7 0) TMP_BV_256)))
#b0011111111))
(a!95 (bvslt (bvsub (concat #b00 ((_ extract 7 0) ymm2))
(concat #b00 ((_ extract 7 0) TMP_BV_256)))
#b0000000000))
(a!96 ((_ extract 7 0)
(bvsub (concat #b00 ((_ extract 7 0) ymm2))
(concat #b00 ((_ extract 7 0) TMP_BV_256))))))
(let ((a!97 (concat (ite a!88 #xff (ite a!89 #x00 a!90))
(concat (ite a!91 #xff (ite a!92 #x00 a!93))
(ite a!94 #xff (ite a!95 #x00 a!96))))))
(let ((a!98 (concat (ite a!82 #xff (ite a!83 #x00 a!84))
(concat (ite a!85 #xff (ite a!86 #x00 a!87)) a!97))))
(let ((a!99 (concat (ite a!76 #xff (ite a!77 #x00 a!78))
(concat (ite a!79 #xff (ite a!80 #x00 a!81)) a!98))))
(let ((a!100 (concat (ite a!70 #xff (ite a!71 #x00 a!72))
(concat (ite a!73 #xff (ite a!74 #x00 a!75)) a!99))))
(let ((a!101 (concat (ite a!64 #xff (ite a!65 #x00 a!66))
(concat (ite a!67 #xff (ite a!68 #x00 a!69)) a!100))))
(let ((a!102 (concat (ite a!58 #xff (ite a!59 #x00 a!60))
(concat (ite a!61 #xff (ite a!62 #x00 a!63)) a!101))))
(let ((a!103 (concat (ite a!52 #xff (ite a!53 #x00 a!54))
(concat (ite a!55 #xff (ite a!56 #x00 a!57)) a!102))))
(let ((a!104 (concat (ite a!46 #xff (ite a!47 #x00 a!48))
(concat (ite a!49 #xff (ite a!50 #x00 a!51)) a!103))))
(let ((a!105 (concat (ite a!40 #xff (ite a!41 #x00 a!42))
(concat (ite a!43 #xff (ite a!44 #x00 a!45)) a!104))))
(let ((a!106 (concat (ite a!34 #xff (ite a!35 #x00 a!36))
(concat (ite a!37 #xff (ite a!38 #x00 a!39)) a!105))))
(let ((a!107 (concat (ite a!28 #xff (ite a!29 #x00 a!30))
(concat (ite a!31 #xff (ite a!32 #x00 a!33)) a!106))))
(let ((a!108 (concat (ite a!22 #xff (ite a!23 #x00 a!24))
(concat (ite a!25 #xff (ite a!26 #x00 a!27)) a!107))))
(let ((a!109 (concat (ite a!16 #xff (ite a!17 #x00 a!18))
(concat (ite a!19 #xff (ite a!20 #x00 a!21)) a!108))))
(let ((a!110 (concat (ite a!10 #xff (ite a!11 #x00 a!12))
(concat (ite a!13 #xff (ite a!14 #x00 a!15)) a!109))))
(let ((a!111 (concat (ite a!4 #xff (ite a!5 #x00 a!6))
(concat (ite a!7 #xff (ite a!8 #x00 a!9)) a!110))))
(concat (ite a!1 #xff (ite a!2 #x00 a!3)) a!111)))))))))))))))))
)))
(check-sat)
( pop )



